346 347 356 
376 377 386 
406 407 416 
436 437 446 
466 467 476 
495 496 505 
523 524 533 
553 554 563 
583 584 593 
598 599 608 
613 614 623 
628 629 638 
643 644 653 
658 659 668 
672 673 682 
686 687 697 
699 701 712 
723 725 736 
738 740 751 
753 755 766 
768 770 781 
783 785 796 
798 800 811 
813 815 826 
828 830 841 
843 845 856 
858 860 871 
873 875 886 
888 890 901 
903 905 916 
918 920 931 
933 935 946 
948 950 961 
963 965 976 
978 980 991 
991 993 1004 
1008 1010 1021 
1023 1025 1036 
1038 1040 1051 
1053 1055 1066 
1068 1070 1081 
1083 1084 1094 
1098 1099 1109 
1113 1114 1124 
1128 1129 1139 
1143 1144 1154 
1158 1159 1169 
1188 1189 1199 
1218 1219 1229 
1248 1249 1259 
1278 1279 1289 
1308 1309 1319 
1338 1339 1349 
1368 1369 1379 
1398 1399 1409 
1428 1429 1439 
1458 1459 1469 
1488 1489 1499 
